NAME: n20q20D.tsp, 20 nodes, semilla 333
COMMENT: Problema aleatorio de norma euclidea
DIMENSION: 20
CAPACITY: 20
EDGE_WEIGHT_TYPE: EUC_2D
NODE_COORD_SECTION
1   0.0000   0.0000
2 -273.0000 -373.0000
3 -371.0000 -268.0000
4 179.0000 469.0000
5 276.0000 -496.0000
6 422.0000 287.0000
7 -499.0000 -363.0000
8 -316.0000  89.0000
9 -162.0000 460.0000
10   1.0000 -59.0000
11 344.0000 303.0000
12 200.0000 -248.0000
13 -28.0000 -410.0000
14 382.0000  85.0000
15 -112.0000 472.0000
16 262.0000 315.0000
17 274.0000 221.0000
18 101.0000  87.0000
19 -307.0000 284.0000
20 209.0000 -451.0000
DISPLAY_DATA_SECTION:
 1  250  250
 2  113   63
 3   64  116
 4  339  484
 5  388    2
 6  461  393
 7    0   68
 8   92  294
 9  169  480
10  250  220
11  422  401
12  350  126
13  236   45
14  441  292
15  194  486
16  381  407
17  387  360
18  300  293
19   96  392
20  354   24
DEMAND_SECTION
1 4
2 1
3 2
4 -7
5 8
6 -1
7 -7
8 -9
9 -7
10 -10
11 0
12 8
13 -4
14 -6
15 5
16 9
17 9
18 5
19 -8
20 8
EOF